FEATURES = {storage,bestInClassSyncTechnology,anytimeAccess,anywhereAccess,computerBackup,easyAndSecureSharing,256BitAES,SSL_TLSEncryption,fileRecovery,versionHistory,dropboxRewind,remoteDeviceWipe,enableTwoFactorAuthentication,dropboxPasswords,dropboxVault,documentWatermarking,sharedLinkControls,accountTransferTool,enableHIPAACompliance,deviceApprovals,familyRoom,dropboxPaper,dropboxTransfer,eSignatures,fileLocking,integratedCloudContent,brandedSharing,traffic,insights,webPreviews,webComments,plusButton,fileRequests,smartSync,automaticSpaceSaving,fullTextSearch,viewerHistory,adminConsole,multiTeamAdminLogin,centralizedBilling,companyManagedGroups,apiAccessToSecurityPlatformPartners,apiAccessToProductivityPlatformPartners,apiAccessToDataTransportPlatformPartners,tieredAdminRoles,signInAsUser,auditLogsWithFileEventTracking,singleSignOn,inviteEnforcement,priorityEmailSupport,liveChatSupport,phoneSupportDuringBusinessHours};
USAGE_LIMITS = {storageLimit,usersLimit,fileRecoveryAndVersionHistoryThreshold,dropboxRewindThreshold,dropboxTransferLimit,includeCustomizationOptionsInDropboxTransfer,eSignaturesLimit,apiAccessToDataTransportPlatformPartnersLimit};
PLANS = {PLUS,FAMILY,PROFESSIONAL,STANDARD,ADVANCED};
ADDONS = {};

plans_prices = [9.99,16.99,16.58,12.5,20.0];
addons_prices = [];

plans_features = array2d(PLANS, FEATURES, [
    % PLUS
    1,1,1,1,1,1,1,1,1,1,1,1,1,1,1,0,0,0,0,0,0,1,1,1,0,1,0,0,0,0,0,1,1,1,1,1,0,0,0,0,0,0,0,0,0,0,0,0,0,0,0,1,1,1,1,1,1,1,1,
    % FAMILY
    1,1,1,1,1,1,1,1,1,1,1,1,1,1,1,0,0,0,0,1,0,1,1,1,0,1,0,0,0,0,0,1,1,1,1,1,0,0,0,0,0,0,0,0,0,0,0,0,0,0,0,1,1,1,1,1,1,1,1,
    % PROFESSIONAL
    1,1,1,1,1,1,1,1,1,1,1,1,1,1,1,1,1,1,1,0,0,1,1,1,0,1,0,0,0,0,1,1,1,1,1,0,0,0,0,0,0,0,0,0,0,0,0,0,0,0,1,1,1,1,1,1,1,1,
    % STANDARD
    1,1,1,1,1,1,1,1,1,1,1,1,0,0,0,1,1,1,1,1,0,1,1,1,0,1,0,0,0,1,1,1,1,1,1,1,1,1,1,1,1,1,1,1,1,1,1,1,1,1,1,1,1,1,1,1,1,1,
    % ADVANCED
    1,1,1,1,1,1,1,1,1,1,1,1,0,0,0,1,1,1,1,1,1,1,1,1,0,1,0,0,1,1,1,1,1,1,1,1,1,1,1,1,1,1,1,1,1,1,1,1,1,1,1,1,1,1,1,1,1,1,
]);
plans_usage_limits = array2d(PLANS, USAGE_LIMITS, [
    % PLUS
    2000,1,30,30,2,0,3,1000000000,
    % FAMILY
    2000,6,30,30,2,0,3,1000000000,
    % PROFESSIONAL
    3000,1,180,180,100,1,3,1000000000,
    % STANDARD
    5000,.inf,180,180,2,0,3,1000000000,
    % ADVANCED
    .inf,.inf,180,180,100,1,3,1000000000,
]);

linked_features = array2d(USAGE_LIMITS, FEATURES, [
    % storageLimit
    1,0,0,0,0,0,0,0,0,0,0,0,0,0,0,0,0,0,0,0,0,0,0,0,0,0,0,0,0,0,0,0,0,0,0,0,0,0,0,0,0,0,0,0,0,0,0,0,0,0,0,0,0,0,0,0,0,0,
    % usersLimit
    0,0,0,0,0,0,0,0,0,0,0,0,0,0,0,0,0,0,0,0,0,0,0,0,0,0,0,0,0,0,0,0,0,0,0,0,0,0,0,0,0,0,0,0,0,0,0,0,0,0,0,0,0,0,0,0,0,0,
    % fileRecoveryAndVersionHistoryThreshold
    0,0,0,0,0,0,0,0,1,1,0,0,0,0,0,0,0,0,0,0,0,0,0,0,0,0,0,0,0,0,0,0,0,0,0,0,0,0,0,0,0,0,0,0,0,0,0,0,0,0,0,0,0,0,0,0,0,0,
    % dropboxRewindThreshold
    0,0,0,0,0,0,0,0,0,0,1,0,0,0,0,0,0,0,0,0,0,0,0,0,0,0,0,0,0,0,0,0,0,0,0,0,0,0,0,0,0,0,0,0,0,0,0,0,0,0,0,0,0,0,0,0,0,0,
    % dropboxTransferLimit
    0,0,0,0,0,0,0,0,0,0,0,0,0,0,0,0,0,0,0,0,0,0,1,0,0,0,0,0,0,0,0,0,0,0,0,0,0,0,0,0,0,0,0,0,0,0,0,0,0,0,0,0,0,0,0,0,0,0,
    % includeCustomizationOptionsInDropboxTransfer
    0,0,0,0,0,0,0,0,0,0,0,0,0,0,0,0,0,0,0,0,0,0,1,0,0,0,0,0,0,0,0,0,0,0,0,0,0,0,0,0,0,0,0,0,0,0,0,0,0,0,0,0,0,0,0,0,0,0,
    % eSignaturesLimit
    0,0,0,0,0,0,0,0,0,0,0,0,0,0,0,0,0,0,0,0,0,0,0,1,0,0,0,0,0,0,0,0,0,0,0,0,0,0,0,0,0,0,0,0,0,0,0,0,0,0,0,0,0,0,0,0,0,0,
    % apiAccessToDataTransportPlatformPartnersLimit
    0,0,0,0,0,0,0,0,0,0,0,0,0,0,0,0,0,0,0,0,0,0,0,0,0,0,0,0,0,0,0,0,0,0,0,0,0,0,0,0,0,0,0,0,0,0,0,0,0,0,0,0,0,0,1,0,0,0,
]);

addons_features = array2d(ADDONS, FEATURES, [
]);
addons_usage_limits = array2d(ADDONS, USAGE_LIMITS, [
]);
addons_usage_limits_extensions = array2d(ADDONS, USAGE_LIMITS, [
]);
addons_available_for = array2d(ADDONS, PLANS, [
]);

addons_depends_on = array2d(ADDONS, ADDONS, [
]);